benchmarks_CP/INST_36x36/30/inst36x36_30_81.dzn
S=6;
start=[|
-1,	-1,	-1,	-1,	-1,	-1,	12,	24,	-1,	35,	-1,	-1,	33,	-1,	22,	-1,	1,	-1,	-1,	-1,	34,	-1,	-1,	-1,	14,	-1,	4,	-1,	-1,	5,	-1,	-1,	13,	-1,	-1,	-1|
-1,	-1,	-1,	-1,	-1,	8,	-1,	-1,	20,	-1,	-1,	-1,	-1,	-1,	-1,	12,	-1,	-1,	-1,	-1,	-1,	24,	16,	28,	26,	-1,	-1,	21,	-1,	27,	25,	-1,	33,	23,	3,	11|
3,	-1,	35,	-1,	-1,	-1,	-1,	-1,	-1,	-1,	-1,	-1,	-1,	-1,	7,	-1,	-1,	-1,	33,	14,	-1,	-1,	-1,	-1,	-1,	20,	-1,	-1,	-1,	8,	-1,	-1,	22,	24,	-1,	-1|
-1,	34,	-1,	10,	28,	21,	-1,	-1,	-1,	-1,	-1,	-1,	-1,	30,	-1,	9,	-1,	-1,	-1,	-1,	-1,	-1,	-1,	-1,	-1,	33,	-1,	25,	-1,	-1,	29,	1,	-1,	-1,	-1,	-1|
14,	-1,	26,	6,	-1,	-1,	-1,	-1,	-1,	22,	-1,	-1,	-1,	-1,	-1,	-1,	-1,	-1,	-1,	-1,	-1,	-1,	-1,	-1,	-1,	-1,	-1,	-1,	-1,	-1,	-1,	-1,	-1,	-1,	28,	-1|
33,	-1,	-1,	-1,	-1,	-1,	-1,	27,	-1,	-1,	34,	-1,	-1,	13,	-1,	18,	26,	-1,	11,	2,	-1,	-1,	3,	8,	-1,	-1,	-1,	9,	-1,	-1,	-1,	-1,	-1,	-1,	-1,	14|
-1,	-1,	-1,	11,	-1,	-1,	27,	-1,	-1,	-1,	18,	-1,	8,	-1,	31,	20,	-1,	-1,	14,	34,	-1,	-1,	-1,	3,	-1,	-1,	-1,	15,	35,	-1,	-1,	-1,	-1,	-1,	-1,	-1|
-1,	-1,	-1,	-1,	-1,	25,	5,	-1,	35,	-1,	-1,	4,	-1,	-1,	-1,	-1,	22,	11,	-1,	-1,	-1,	9,	33,	12,	-1,	21,	18,	-1,	-1,	-1,	-1,	8,	16,	28,	-1,	-1|
-1,	6,	24,	-1,	31,	-1,	-1,	-1,	-1,	-1,	-1,	-1,	-1,	-1,	30,	33,	-1,	-1,	8,	22,	-1,	21,	-1,	-1,	13,	34,	-1,	-1,	-1,	-1,	15,	-1,	-1,	25,	-1,	-1|
-1,	-1,	-1,	16,	-1,	-1,	14,	-1,	-1,	-1,	-1,	31,	10,	-1,	-1,	19,	-1,	12,	1,	-1,	-1,	-1,	27,	-1,	28,	-1,	33,	-1,	24,	32,	-1,	-1,	-1,	3,	5,	-1|
-1,	-1,	-1,	-1,	27,	-1,	-1,	33,	-1,	-1,	-1,	-1,	-1,	-1,	-1,	-1,	-1,	-1,	31,	-1,	-1,	-1,	-1,	6,	3,	14,	-1,	-1,	19,	-1,	-1,	17,	23,	-1,	-1,	21|
-1,	8,	-1,	-1,	-1,	-1,	-1,	-1,	28,	-1,	-1,	3,	-1,	-1,	-1,	35,	-1,	-1,	-1,	-1,	-1,	-1,	-1,	-1,	-1,	-1,	11,	29,	-1,	-1,	-1,	22,	-1,	-1,	-1,	19|
11,	-1,	34,	28,	-1,	-1,	3,	6,	-1,	25,	-1,	-1,	-1,	-1,	36,	-1,	32,	9,	-1,	-1,	-1,	-1,	-1,	-1,	19,	12,	-1,	-1,	8,	20,	-1,	-1,	29,	-1,	-1,	-1|
-1,	-1,	-1,	-1,	-1,	-1,	10,	29,	-1,	-1,	-1,	-1,	-1,	-1,	-1,	-1,	-1,	33,	-1,	32,	-1,	-1,	-1,	-1,	-1,	-1,	-1,	-1,	22,	-1,	-1,	-1,	-1,	30,	-1,	-1|
-1,	-1,	-1,	-1,	-1,	-1,	32,	-1,	-1,	-1,	17,	1,	-1,	-1,	-1,	8,	-1,	25,	13,	-1,	-1,	-1,	-1,	-1,	-1,	-1,	-1,	-1,	14,	-1,	27,	6,	-1,	-1,	31,	-1|
-1,	-1,	-1,	-1,	-1,	-1,	-1,	18,	-1,	-1,	-1,	-1,	35,	1,	-1,	-1,	-1,	14,	-1,	-1,	-1,	-1,	11,	-1,	30,	10,	-1,	28,	-1,	-1,	-1,	21,	-1,	16,	-1,	12|
-1,	-1,	20,	12,	21,	-1,	13,	-1,	-1,	8,	-1,	-1,	-1,	4,	-1,	-1,	-1,	-1,	-1,	-1,	2,	-1,	-1,	-1,	-1,	-1,	17,	-1,	-1,	-1,	-1,	-1,	-1,	-1,	-1,	-1|
-1,	16,	-1,	-1,	-1,	-1,	-1,	-1,	-1,	23,	30,	28,	-1,	-1,	-1,	-1,	-1,	-1,	-1,	-1,	29,	-1,	-1,	1,	-1,	-1,	-1,	-1,	5,	25,	18,	-1,	26,	-1,	2,	-1|
-1,	-1,	-1,	27,	-1,	-1,	-1,	16,	29,	9,	-1,	-1,	-1,	-1,	-1,	-1,	-1,	-1,	-1,	-1,	13,	1,	-1,	2,	-1,	-1,	-1,	-1,	23,	-1,	-1,	-1,	-1,	31,	-1,	-1|
-1,	-1,	-1,	-1,	-1,	15,	26,	-1,	34,	-1,	-1,	-1,	-1,	-1,	3,	1,	-1,	13,	-1,	-1,	-1,	-1,	-1,	-1,	-1,	-1,	24,	-1,	-1,	-1,	-1,	-1,	30,	22,	23,	36|
-1,	12,	-1,	-1,	-1,	-1,	-1,	-1,	-1,	-1,	22,	-1,	24,	-1,	-1,	-1,	-1,	-1,	-1,	17,	7,	-1,	28,	36,	-1,	-1,	-1,	-1,	-1,	-1,	-1,	-1,	14,	32,	-1,	13|
-1,	3,	-1,	-1,	19,	-1,	31,	10,	-1,	32,	-1,	-1,	-1,	-1,	-1,	5,	15,	-1,	12,	-1,	-1,	-1,	-1,	-1,	-1,	-1,	29,	-1,	-1,	-1,	-1,	-1,	-1,	9,	33,	-1|
6,	-1,	-1,	23,	-1,	-1,	33,	-1,	-1,	4,	-1,	-1,	-1,	-1,	-1,	-1,	-1,	-1,	-1,	3,	35,	16,	-1,	31,	12,	-1,	26,	34,	13,	7,	-1,	-1,	-1,	29,	15,	5|
4,	-1,	13,	-1,	-1,	-1,	18,	-1,	-1,	-1,	-1,	-1,	-1,	14,	-1,	-1,	21,	-1,	-1,	19,	33,	20,	-1,	-1,	-1,	-1,	10,	-1,	-1,	1,	16,	-1,	-1,	2,	-1,	8|
-1,	27,	-1,	-1,	8,	-1,	-1,	-1,	-1,	-1,	-1,	-1,	-1,	-1,	24,	-1,	-1,	23,	-1,	1,	6,	17,	-1,	-1,	-1,	-1,	-1,	-1,	-1,	3,	14,	-1,	-1,	-1,	-1,	-1|
-1,	-1,	-1,	-1,	3,	-1,	-1,	36,	7,	14,	27,	6,	-1,	5,	-1,	2,	-1,	-1,	-1,	-1,	22,	-1,	-1,	-1,	35,	-1,	-1,	13,	-1,	-1,	-1,	-1,	-1,	20,	-1,	-1|
-1,	-1,	-1,	4,	-1,	1,	-1,	-1,	17,	-1,	19,	-1,	9,	8,	-1,	36,	-1,	-1,	-1,	27,	-1,	-1,	20,	13,	11,	-1,	-1,	-1,	-1,	-1,	-1,	5,	-1,	21,	22,	26|
-1,	2,	-1,	-1,	-1,	-1,	21,	9,	-1,	-1,	-1,	-1,	-1,	-1,	4,	-1,	13,	-1,	28,	-1,	-1,	-1,	-1,	-1,	8,	17,	1,	-1,	-1,	-1,	-1,	32,	-1,	15,	24,	7|
-1,	-1,	12,	24,	-1,	19,	-1,	-1,	4,	-1,	13,	-1,	-1,	-1,	-1,	-1,	35,	-1,	-1,	9,	-1,	-1,	-1,	-1,	-1,	-1,	-1,	-1,	-1,	-1,	-1,	2,	-1,	-1,	-1,	1|
-1,	35,	-1,	34,	22,	13,	-1,	-1,	-1,	-1,	26,	8,	-1,	-1,	-1,	-1,	-1,	-1,	-1,	4,	-1,	3,	-1,	-1,	25,	-1,	-1,	-1,	-1,	-1,	-1,	-1,	-1,	-1,	-1,	-1|
-1,	-1,	-1,	-1,	-1,	-1,	-1,	-1,	32,	-1,	29,	-1,	-1,	-1,	-1,	-1,	8,	-1,	-1,	28,	-1,	-1,	-1,	-1,	-1,	-1,	-1,	3,	26,	14,	-1,	-1,	-1,	-1,	-1,	16|
-1,	4,	21,	-1,	5,	6,	-1,	-1,	-1,	-1,	12,	-1,	19,	24,	-1,	-1,	-1,	-1,	-1,	-1,	-1,	-1,	14,	-1,	7,	18,	-1,	-1,	-1,	35,	-1,	-1,	-1,	-1,	27,	-1|
10,	28,	-1,	32,	29,	17,	-1,	-1,	31,	24,	-1,	-1,	-1,	35,	-1,	-1,	-1,	18,	-1,	-1,	-1,	-1,	-1,	-1,	-1,	27,	-1,	5,	16,	-1,	-1,	23,	2,	-1,	-1,	-1|
12,	-1,	25,	-1,	-1,	-1,	-1,	11,	-1,	-1,	-1,	-1,	-1,	-1,	-1,	-1,	36,	-1,	30,	-1,	-1,	31,	-1,	-1,	-1,	-1,	13,	6,	-1,	-1,	28,	-1,	-1,	26,	-1,	-1|
-1,	-1,	-1,	31,	35,	-1,	-1,	-1,	-1,	-1,	-1,	-1,	1,	-1,	-1,	16,	-1,	-1,	-1,	-1,	-1,	-1,	-1,	-1,	36,	-1,	15,	-1,	21,	-1,	-1,	-1,	-1,	-1,	-1,	25|
-1,	-1,	22,	-1,	-1,	26,	-1,	-1,	-1,	-1,	16,	20,	-1,	-1,	-1,	-1,	-1,	-1,	-1,	-1,	-1,	-1,	-1,	-1,	-1,	-1,	-1,	-1,	30,	12,	-1,	-1,	32,	5,	1,	-1|];
